
# Find minimum energy fcc configuration
# Mark Tschopp, 2010

# ---------- Initialize Simulation --------------------- 
clear 
units metal 
dimension 3 
boundary p p p 
atom_style atomic 
atom_modify map array

# ---------- Create Atoms --------------------- 
lattice bcc 2.866
region	box block 0 10 0 10 0 10
create_box	1 box
create_atoms 1 box

# ---------- Define Interatomic Potential --------------------- 
pair_style eam/fs 
pair_coeff * * ../00_potentials/malerba.fs Fe
neighbor 2.0 bin 
neigh_modify delay 10 check yes 

# ---------- Run Minimization --------------------- 
reset_timestep 0 
timestep 0.001

velocity all reate 1000.0 124312 mom yes rot yes dist gaussian

fix 1 all npt temp 1000.0 1000.0 $(100.0*dt) iso 0.0 0.0 $(100.0*dt) 

thermo 10 
thermo_style custom step dt time temp press ke pe etotal

run 500